\ Model mip1
\ LP format - for model browsing. Use MPS format to capture full model detail.
Minimize
  2 x[0,0] + 5 x[0,1] + 2 x[1,0] + 5 x[1,1] + 3 x[2,0] + 2 x[2,1] + 3 x[3,0]
   + 2 x[3,1] + 4 x[4,0] + 2 x[4,1] + 3 x[5,0] + 3 x[5,1] + 4 x[6,0]
   + 4 x[6,1] + 2 x[7,0] + 3 x[7,1] + 2 x[8,0] + 3 x[8,1] + 5 x[9,0]
   + 2 x[9,1] + 2 x[10,0] + 4 x[10,1] + 3 x[11,0] + 4 x[11,1] + 3 x[12,0]
   + 3 x[12,1] + 4 x[13,0] + 2 x[13,1] + 2 x[14,0] + 3 x[14,1]
Subject To
 c0: x[0,0] + x[1,0] + x[2,0] + x[3,0] + x[4,0] + x[5,0] + x[6,0] + x[7,0]
   + x[8,0] + x[9,0] + x[10,0] + x[11,0] + x[12,0] + x[13,0] + x[14,0]
   >= 5
 c1: x[0,1] + x[1,1] + x[2,1] + x[3,1] + x[4,1] + x[5,1] + x[6,1] + x[7,1]
   + x[8,1] + x[9,1] + x[10,1] + x[11,1] + x[12,1] + x[13,1] + x[14,1]
   >= 5
 p0: x[0,0] + x[0,1] = 1
 p1: x[1,0] + x[1,1] = 1
 p2: x[2,0] + x[2,1] = 1
 p3: x[3,0] + x[3,1] = 1
 p4: x[4,0] + x[4,1] = 1
 p5: x[5,0] + x[5,1] = 1
 p6: x[6,0] + x[6,1] = 1
 p7: x[7,0] + x[7,1] = 1
 p8: x[8,0] + x[8,1] = 1
 p9: x[9,0] + x[9,1] = 1
 p10: x[10,0] + x[10,1] = 1
 p11: x[11,0] + x[11,1] = 1
 p12: x[12,0] + x[12,1] = 1
 p13: x[13,0] + x[13,1] = 1
 p14: x[14,0] + x[14,1] = 1
 n0d0: x[0,0] + x[6,0] + x[10,0] + x[11,0] <= 3
 n0d1: x[0,1] + x[6,1] + x[10,1] + x[11,1] <= 3
 n1d0: x[1,0] + x[7,0] + x[12,0] + x[14,0] <= 3
 n1d1: x[1,1] + x[7,1] + x[12,1] + x[14,1] <= 3
 n2d0: x[2,0] + x[8,0] <= 3
 n2d1: x[2,1] + x[8,1] <= 3
 n3d0: x[3,0] <= 3
 n3d1: x[3,1] <= 3
 n4d0: x[4,0] <= 3
 n4d1: x[4,1] <= 3
 n5d0: x[9,0] <= 3
 n5d1: x[9,1] <= 3
 n6d0: x[13,0] <= 3
 n6d1: x[13,1] <= 3
 n7d0: x[5,0] <= 3
 n7d1: x[5,1] <= 3
Bounds
Binaries
 x[0,0] x[0,1] x[1,0] x[1,1] x[2,0] x[2,1] x[3,0] x[3,1] x[4,0] x[4,1]
 x[5,0] x[5,1] x[6,0] x[6,1] x[7,0] x[7,1] x[8,0] x[8,1] x[9,0] x[9,1]
 x[10,0] x[10,1] x[11,0] x[11,1] x[12,0] x[12,1] x[13,0] x[13,1] x[14,0]
 x[14,1]
End
